Welcome to the CBC MILP Solver 
Version: 2.10.3 
Build Date: Dec 15 2019 

command line - c:\Users\gabriela.freitas\Repositorios\LNGinventoryopt\python312\Lib\site-packages\pulp\apis\../solverdir/cbc/win/i64/cbc.exe C:\Users\GABRIE~1.FRE\AppData\Local\Temp\71b0b6f8930c4eeebeb2343b00c5b38d-pulp.mps -sec 1000 -timeMode elapsed -branch -printingOptions all -solution C:\Users\GABRIE~1.FRE\AppData\Local\Temp\71b0b6f8930c4eeebeb2343b00c5b38d-pulp.sol (default strategy 1)
At line 2 NAME          MODEL
At line 3 ROWS
At line 5545 COLUMNS
At line 23729 RHS
At line 29270 BOUNDS
At line 32271 ENDATA
Problem MODEL has 5540 rows, 3600 columns and 12063 elements
Coin0008I MODEL read with 0 errors
seconds was changed from 1e+100 to 1000
Option for timeMode changed from cpu to elapsed
Problem is infeasible - 0.06 seconds
Option for printingOptions changed from normal to all
Total time (CPU seconds):       0.14   (Wallclock seconds):       0.14

